c pcminimize - minimizing a CNF with respect to propagation completeness by iterative removing of absorbed clauses.
c Petr Kucera, 2016-2021
c Version 2.7, revision 59, git hash 4910a71, date 2024-07-16 20:17:42 +0200
p cnf 962 2492
111 -112 0
31 -112 0
-31 -113 0
114 -116 0
115 -116 0
116 -117 0
21 -117 0
114 -118 0
118 -119 0
-21 -119 0
120 -121 0
44 -121 0
120 -122 0
-44 -122 0
123 -124 0
43 -124 0
120 -125 0
125 -126 0
-43 -126 0
127 -128 0
46 -128 0
127 -129 0
-46 -129 0
130 -131 0
45 -131 0
127 -132 0
132 -133 0
-45 -133 0
134 -135 0
34 -135 0
134 -136 0
-34 -136 0
137 -138 0
33 -138 0
134 -139 0
139 -140 0
-33 -140 0
141 -142 0
58 -142 0
141 -143 0
-58 -143 0
142 143 -144 0
144 -147 0
145 -147 0
146 -147 0
147 -148 0
57 -148 0
145 -149 0
146 -149 0
141 -150 0
58 -150 0
149 -150 0
150 -151 0
-57 -151 0
148 151 -152 0
153 -154 0
93 -154 0
94 -155 0
-93 -155 0
154 155 -156 0
157 -158 0
91 -158 0
-91 -159 0
152 -161 0
156 -161 0
160 -161 0
161 -162 0
74 -162 0
160 -163 0
73 -163 0
153 -163 0
163 -164 0
93 -164 0
160 -165 0
73 -165 0
165 -166 0
94 -166 0
166 -167 0
-93 -167 0
164 167 -168 0
144 -169 0
168 -169 0
169 -170 0
146 -170 0
170 -171 0
57 -171 0
141 -172 0
168 -172 0
172 -173 0
146 -173 0
173 -174 0
58 -174 0
174 -175 0
-57 -175 0
171 175 -176 0
176 -177 0
-74 -177 0
178 -179 0
75 -179 0
144 -180 0
145 -180 0
180 -181 0
57 -181 0
141 -182 0
58 -182 0
145 -182 0
182 -183 0
-57 -183 0
181 183 -184 0
184 -185 0
156 -185 0
160 -185 0
185 -186 0
74 -186 0
144 -187 0
57 -187 0
141 -188 0
58 -188 0
188 -189 0
-57 -189 0
187 189 -190 0
190 -191 0
156 -191 0
160 -191 0
73 -191 0
191 -192 0
-74 -192 0
186 192 -193 0
193 -194 0
76 -194 0
194 -195 0
-75 -195 0
196 -197 0
59 -197 0
196 -198 0
-59 -198 0
199 -200 0
60 -200 0
196 -201 0
201 -202 0
-60 -202 0
203 -204 0
96 -204 0
203 -205 0
-96 -205 0
206 -207 0
95 -207 0
203 -208 0
208 -209 0
-95 -209 0
210 -211 0
48 -211 0
210 -212 0
-48 -212 0
214 -216 0
215 -216 0
216 -217 0
63 -217 0
64 -218 0
214 -218 0
218 -219 0
-63 -219 0
220 -221 0
82 -221 0
215 -222 0
63 -222 0
64 -223 0
-63 -223 0
222 223 -224 0
224 -225 0
81 -225 0
225 -226 0
-82 -226 0
227 -228 0
100 -228 0
227 -229 0
-100 -229 0
228 229 -230 0
230 -231 0
80 -231 0
230 -232 0
-80 -232 0
231 232 -233 0
233 -234 0
99 -234 0
227 -235 0
80 -235 0
227 -236 0
-80 -236 0
235 236 -237 0
237 -238 0
100 -238 0
238 -239 0
-99 -239 0
240 -241 0
79 -241 0
230 -242 0
99 -242 0
227 -243 0
100 -243 0
243 -244 0
-99 -244 0
242 244 -245 0
245 -246 0
80 -246 0
246 -247 0
-79 -247 0
249 -250 0
83 -250 0
-83 -251 0
248 -253 0
252 -253 0
253 -254 0
102 -254 0
248 -255 0
252 -255 0
255 -256 0
-102 -256 0
254 256 -257 0
257 -258 0
97 -258 0
257 -259 0
-97 -259 0
258 259 -260 0
260 -261 0
98 -261 0
257 -262 0
97 -262 0
262 -263 0
-98 -263 0
264 -265 0
101 -265 0
248 -266 0
97 -266 0
248 -267 0
-97 -267 0
266 267 -268 0
268 -269 0
98 -269 0
248 -270 0
97 -270 0
270 -271 0
-98 -271 0
269 271 -272 0
272 -273 0
252 -273 0
102 -273 0
273 -274 0
-101 -274 0
213 -276 0
275 -276 0
276 -277 0
47 -277 0
210 -278 0
275 -278 0
278 -279 0
279 -280 0
-47 -280 0
281 -282 0
61 -282 0
281 -283 0
-61 -283 0
284 -285 0
62 -285 0
281 -286 0
286 -287 0
-62 -287 0
288 -289 0
77 -289 0
288 -290 0
-77 -290 0
291 -292 0
78 -292 0
288 -293 0
293 -294 0
-78 -294 0
295 -296 0
104 -296 0
295 -297 0
-104 -297 0
298 -299 0
103 -299 0
295 -300 0
300 -301 0
-103 -301 0
303 -304 0
5 -304 0
6 -305 0
-5 -305 0
304 305 -306 0
306 -307 0
12 -307 0
306 -308 0
-12 -308 0
307 308 -309 0
309 -310 0
9 -310 0
309 -311 0
-9 -311 0
310 311 -312 0
313 -314 0
19 -314 0
20 -315 0
-19 -315 0
314 315 -316 0
316 -317 0
28 -317 0
316 -318 0
-28 -318 0
317 318 -319 0
319 -320 0
27 -320 0
316 -321 0
28 -321 0
322 -323 0
313 -323 0
323 -324 0
-28 -324 0
321 324 -325 0
325 -326 0
-27 -326 0
320 326 -327 0
-3 -328 0
-4 -328 0
-7 -328 0
-8 -328 0
-15 -328 0
-16 -328 0
-25 -328 0
-26 -328 0
329 -331 0
330 -331 0
312 -332 0
327 -332 0
328 -332 0
331 -332 0
332 -333 0
11 -333 0
-19 -334 0
-20 -334 0
-27 -334 0
-28 -334 0
334 -335 0
330 -335 0
335 -338 0
336 -338 0
337 -338 0
338 -339 0
17 -339 0
334 -340 0
336 -340 0
337 -340 0
340 -341 0
18 -341 0
-25 -342 0
-26 -342 0
342 -344 0
343 -344 0
344 -345 0
27 -345 0
342 -346 0
28 -346 0
336 -347 0
337 -347 0
347 -348 0
-28 -348 0
346 348 -349 0
349 -350 0
-27 -350 0
345 350 -351 0
351 -352 0
313 -352 0
352 -353 0
19 -353 0
351 -354 0
20 -354 0
-27 -355 0
-28 -355 0
336 -356 0
337 -356 0
355 -357 0
356 -357 0
357 -358 0
-20 -358 0
354 358 -359 0
359 -360 0
-19 -360 0
353 360 -361 0
361 -362 0
-18 -362 0
341 362 -363 0
363 -364 0
-17 -364 0
339 364 -365 0
366 -367 0
8 -367 0
7 -368 0
-8 -368 0
367 368 -369 0
-5 -370 0
-6 -370 0
369 -372 0
370 -372 0
371 -372 0
372 -373 0
4 -373 0
3 -374 0
-5 -374 0
-6 -374 0
369 -375 0
374 -375 0
375 -376 0
-4 -376 0
373 376 -377 0
365 -378 0
377 -378 0
378 -379 0
-12 -379 0
379 -380 0
15 -380 0
365 -381 0
377 -381 0
-12 -381 0
381 -382 0
-15 -382 0
380 382 -383 0
383 -384 0
16 -384 0
379 -385 0
15 -385 0
-3 -386 0
-4 -386 0
-7 -386 0
-8 -386 0
306 -387 0
327 -387 0
386 -387 0
387 -388 0
329 -388 0
330 -388 0
388 -389 0
12 -389 0
-17 -390 0
-18 -390 0
390 -391 0
313 -391 0
391 -393 0
343 -393 0
392 -393 0
393 -394 0
19 -394 0
390 -395 0
343 -395 0
392 -395 0
395 -396 0
20 -396 0
355 -397 0
330 -397 0
329 -397 0
397 -398 0
-20 -398 0
396 398 -399 0
399 -400 0
-19 -400 0
394 400 -401 0
370 -402 0
371 -402 0
402 -404 0
366 -404 0
403 -404 0
404 -405 0
4 -405 0
370 -406 0
366 -406 0
403 -406 0
406 -407 0
3 -407 0
-7 -408 0
-8 -408 0
408 -410 0
303 -410 0
409 -410 0
410 -411 0
-3 -411 0
407 411 -412 0
412 -413 0
-4 -413 0
405 413 -414 0
401 -415 0
414 -415 0
415 -416 0
-12 -416 0
389 416 -417 0
417 -418 0
342 -418 0
418 -419 0
-15 -419 0
385 419 -420 0
420 -421 0
-16 -421 0
384 421 -422 0
422 -423 0
9 -423 0
422 -424 0
-9 -424 0
423 424 -425 0
425 -426 0
-11 -426 0
333 426 -427 0
427 -428 0
10 -428 0
329 -429 0
330 -429 0
309 -430 0
327 -430 0
328 -430 0
429 -430 0
430 -431 0
11 -431 0
422 -432 0
-11 -432 0
431 432 -433 0
433 -434 0
9 -434 0
369 -435 0
15 -435 0
369 -436 0
-15 -436 0
435 436 -437 0
437 -438 0
361 -438 0
390 -438 0
438 -439 0
16 -439 0
361 -440 0
369 -440 0
390 -440 0
440 -441 0
15 -441 0
329 -442 0
330 -442 0
327 -443 0
342 -443 0
442 -443 0
443 -444 0
366 -444 0
403 -444 0
444 -445 0
-15 -445 0
441 445 -446 0
446 -447 0
-16 -447 0
439 447 -448 0
448 -450 0
449 -450 0
450 -451 0
11 -451 0
361 -452 0
437 -452 0
390 -452 0
449 -452 0
452 -453 0
16 -453 0
361 -454 0
369 -454 0
390 -454 0
449 -454 0
454 -455 0
15 -455 0
327 -456 0
330 -456 0
329 -456 0
456 -457 0
12 -457 0
401 -458 0
-12 -458 0
457 458 -459 0
459 -460 0
342 -460 0
460 -461 0
366 -461 0
403 -461 0
461 -462 0
-15 -462 0
455 462 -463 0
463 -464 0
-16 -464 0
453 464 -465 0
465 -466 0
-11 -466 0
451 466 -467 0
370 -468 0
371 -468 0
468 -469 0
4 -469 0
370 -470 0
3 -470 0
303 -471 0
409 -471 0
471 -472 0
-3 -472 0
470 472 -473 0
473 -474 0
-4 -474 0
469 474 -475 0
467 -476 0
475 -476 0
476 -477 0
-9 -477 0
434 477 -478 0
478 -479 0
-10 -479 0
428 479 -480 0
480 -483 0
481 -483 0
482 -483 0
483 -484 0
484 -485 0
30 -485 0
484 -486 0
-30 -486 0
485 486 -487 0
488 -489 0
106 -489 0
-106 -490 0
492 -494 0
493 -494 0
494 -495 0
41 -495 0
42 -496 0
492 -496 0
496 -497 0
-41 -497 0
498 -499 0
54 -499 0
493 -500 0
41 -500 0
42 -501 0
-41 -501 0
500 501 -502 0
502 -503 0
53 -503 0
503 -504 0
-54 -504 0
505 -506 0
56 -506 0
505 -507 0
-56 -507 0
509 -510 0
90 -510 0
-90 -511 0
512 -513 0
110 -513 0
512 -514 0
-110 -514 0
515 -516 0
109 -516 0
512 -517 0
517 -518 0
-109 -518 0
519 -520 0
107 -520 0
519 -521 0
-107 -521 0
522 -523 0
108 -523 0
519 -524 0
524 -525 0
-108 -525 0
526 -528 0
527 -528 0
528 -529 0
72 -529 0
526 -530 0
530 -531 0
-72 -531 0
508 -533 0
532 -533 0
533 -534 0
55 -534 0
505 -535 0
532 -535 0
535 -536 0
-55 -536 0
537 -538 0
87 -538 0
537 -539 0
-87 -539 0
538 539 -540 0
540 -541 0
70 -541 0
540 -542 0
-70 -542 0
541 542 -543 0
543 -544 0
69 -544 0
540 -545 0
70 -545 0
545 -546 0
-69 -546 0
491 -548 0
547 -548 0
548 -549 0
88 -549 0
537 -550 0
70 -550 0
537 -551 0
-70 -551 0
550 551 -552 0
552 -553 0
69 -553 0
537 -554 0
70 -554 0
554 -555 0
-69 -555 0
553 555 -556 0
491 -557 0
556 -557 0
87 -557 0
557 -558 0
-88 -558 0
487 -560 0
559 -560 0
560 -561 0
29 -561 0
480 -563 0
562 -563 0
482 -563 0
563 -564 0
30 -565 0
564 -566 0
559 -566 0
565 -566 0
566 -567 0
-29 -567 0
561 567 -568 0
568 -569 0
39 -569 0
-12 -570 0
-20 -570 0
-27 -570 0
-28 -570 0
337 -571 0
336 -571 0
377 -572 0
570 -572 0
571 -572 0
572 -573 0
-19 -573 0
573 -574 0
18 -574 0
-12 -575 0
-19 -575 0
-20 -575 0
-27 -575 0
-28 -575 0
337 -576 0
336 -576 0
377 -577 0
575 -577 0
576 -577 0
577 -578 0
-18 -578 0
574 578 -579 0
579 -580 0
-11 -580 0
580 -581 0
15 -581 0
-5 -582 0
-6 -582 0
-11 -582 0
-12 -582 0
369 -583 0
582 -583 0
371 -583 0
583 -584 0
4 -584 0
3 -585 0
-5 -585 0
-6 -585 0
-11 -585 0
-12 -585 0
369 -586 0
585 -586 0
586 -587 0
-4 -587 0
584 587 -588 0
-27 -589 0
-28 -589 0
337 -590 0
336 -590 0
588 -591 0
589 -591 0
590 -591 0
591 -592 0
-20 -592 0
592 -593 0
-19 -593 0
593 -594 0
18 -594 0
592 -595 0
-19 -595 0
595 -596 0
-18 -596 0
594 596 -597 0
597 -598 0
-15 -598 0
581 598 -599 0
599 -600 0
16 -600 0
-11 -601 0
-12 -601 0
-19 -601 0
-20 -601 0
-27 -601 0
-28 -601 0
330 -602 0
337 -602 0
336 -602 0
377 -603 0
601 -603 0
602 -603 0
603 -604 0
15 -604 0
309 -605 0
313 -605 0
605 -606 0
11 -606 0
306 -607 0
12 -607 0
313 -607 0
607 -608 0
-11 -608 0
606 608 -609 0
609 -610 0
386 -610 0
610 -611 0
392 -611 0
343 -611 0
611 -612 0
19 -612 0
309 -613 0
11 -613 0
306 -614 0
12 -614 0
614 -615 0
-11 -615 0
613 615 -616 0
616 -617 0
408 -617 0
617 -618 0
-4 -618 0
618 -619 0
-3 -619 0
619 -620 0
392 -620 0
343 -620 0
620 -621 0
20 -621 0
582 -623 0
622 -623 0
623 -624 0
366 -624 0
403 -624 0
624 -625 0
3 -625 0
-4 -626 0
-7 -626 0
-8 -626 0
626 -627 0
303 -627 0
627 -629 0
449 -629 0
628 -629 0
629 -630 0
5 -630 0
626 -631 0
449 -631 0
628 -631 0
631 -632 0
6 -632 0
366 -633 0
403 -633 0
633 -634 0
4 -634 0
408 -635 0
-4 -635 0
634 635 -636 0
-11 -637 0
-12 -637 0
636 -638 0
637 -638 0
638 -639 0
-6 -639 0
632 639 -640 0
640 -641 0
-5 -641 0
630 641 -642 0
642 -643 0
-3 -643 0
625 643 -644 0
644 -645 0
355 -645 0
645 -646 0
-20 -646 0
621 646 -647 0
647 -648 0
-19 -648 0
612 648 -649 0
649 -650 0
18 -650 0
649 -651 0
-18 -651 0
650 651 -652 0
-25 -653 0
-26 -653 0
652 -654 0
653 -654 0
654 -655 0
-15 -655 0
604 655 -656 0
656 -657 0
-16 -657 0
600 657 -658 0
658 -659 0
17 -659 0
-19 -660 0
-20 -660 0
-27 -660 0
-28 -660 0
337 -661 0
336 -661 0
660 -662 0
661 -662 0
662 -663 0
18 -663 0
653 -664 0
343 -664 0
664 -665 0
27 -665 0
653 -666 0
28 -666 0
337 -668 0
336 -668 0
667 -669 0
668 -669 0
669 -670 0
-28 -670 0
666 670 -671 0
671 -672 0
-27 -672 0
665 672 -673 0
673 -674 0
313 -674 0
674 -675 0
19 -675 0
673 -676 0
20 -676 0
337 -677 0
336 -677 0
589 -678 0
677 -678 0
678 -679 0
-20 -679 0
676 679 -680 0
680 -681 0
-19 -681 0
675 681 -682 0
682 -683 0
-18 -683 0
663 683 -684 0
684 -685 0
377 -685 0
637 -685 0
685 -686 0
15 -686 0
593 -687 0
18 -687 0
588 -688 0
682 -688 0
688 -689 0
-18 -689 0
687 689 -690 0
690 -691 0
-15 -691 0
686 691 -692 0
692 -693 0
16 -693 0
684 -694 0
377 -694 0
637 -694 0
694 -695 0
15 -695 0
649 -696 0
18 -696 0
644 -697 0
327 -697 0
697 -698 0
-18 -698 0
696 698 -699 0
699 -700 0
653 -700 0
700 -701 0
-15 -701 0
695 701 -702 0
702 -703 0
-16 -703 0
693 703 -704 0
704 -705 0
-17 -705 0
659 705 -706 0
706 -707 0
9 -707 0
706 -708 0
-9 -708 0
707 708 -709 0
709 -710 0
10 -710 0
706 -711 0
9 -711 0
330 -712 0
449 -712 0
712 -713 0
11 -713 0
12 -714 0
330 -714 0
714 -715 0
-11 -715 0
713 715 -716 0
716 -717 0
20 -717 0
716 -718 0
-20 -718 0
717 718 -719 0
719 -720 0
392 -720 0
343 -720 0
720 -721 0
19 -721 0
716 -722 0
392 -722 0
343 -722 0
722 -723 0
20 -723 0
355 -724 0
330 -724 0
628 -724 0
449 -724 0
724 -725 0
-20 -725 0
723 725 -726 0
726 -727 0
-19 -727 0
721 727 -728 0
-15 -729 0
-16 -729 0
-25 -729 0
-26 -729 0
366 -730 0
403 -730 0
728 -731 0
729 -731 0
730 -731 0
731 -732 0
17 -732 0
-18 -733 0
628 -734 0
449 -734 0
361 -735 0
437 -735 0
733 -735 0
734 -735 0
735 -736 0
16 -736 0
628 -737 0
449 -737 0
361 -738 0
369 -738 0
-18 -738 0
737 -738 0
738 -739 0
15 -739 0
449 -740 0
11 -740 0
12 -741 0
-11 -741 0
740 741 -742 0
742 -743 0
20 -743 0
742 -744 0
-20 -744 0
743 744 -745 0
745 -746 0
392 -746 0
343 -746 0
746 -747 0
19 -747 0
742 -748 0
392 -748 0
343 -748 0
748 -749 0
20 -749 0
355 -750 0
628 -750 0
449 -750 0
750 -751 0
-20 -751 0
749 751 -752 0
752 -753 0
-19 -753 0
747 753 -754 0
754 -755 0
18 -755 0
327 -756 0
628 -756 0
449 -756 0
756 -757 0
-18 -757 0
755 757 -758 0
758 -759 0
342 -759 0
759 -760 0
366 -760 0
403 -760 0
760 -761 0
-15 -761 0
739 761 -762 0
762 -763 0
763 -764 0
-16 -764 0
736 764 -765 0
765 -766 0
-17 -766 0
732 766 -767 0
767 -768 0
475 -768 0
768 -769 0
-9 -769 0
711 769 -770 0
770 -771 0
-10 -771 0
710 771 -772 0
40 -773 0
772 -774 0
559 -774 0
773 -774 0
774 -775 0
775 -776 0
30 -776 0
775 -777 0
-30 -777 0
776 777 -778 0
778 -779 0
29 -779 0
775 -780 0
30 -780 0
780 -781 0
-29 -781 0
779 781 -782 0
782 -783 0
-39 -783 0
302 -785 0
784 -785 0
785 -786 0
786 -787 0
787 -788 0
85 -788 0
787 -789 0
-85 -789 0
788 789 -790 0
790 -791 0
67 -791 0
790 -792 0
-67 -792 0
791 792 -793 0
793 -794 0
65 -794 0
793 -795 0
-65 -795 0
794 795 -796 0
796 -797 0
68 -797 0
786 -798 0
65 -798 0
-65 -799 0
798 799 -800 0
800 -801 0
801 -802 0
85 -802 0
801 -803 0
-85 -803 0
802 803 -804 0
804 -805 0
67 -805 0
805 -806 0
-68 -806 0
797 806 -807 0
807 -808 0
86 -808 0
801 -809 0
67 -809 0
801 -810 0
-67 -810 0
809 810 -811 0
811 -812 0
68 -812 0
801 -813 0
67 -813 0
813 -814 0
-68 -814 0
812 814 -815 0
815 -816 0
85 -816 0
816 -817 0
-86 -817 0
808 817 -818 0
818 -819 0
66 -819 0
65 -820 0
302 -821 0
784 -821 0
820 -821 0
821 -822 0
822 -823 0
67 -823 0
787 -824 0
65 -824 0
824 -825 0
-67 -825 0
823 825 -826 0
826 -827 0
85 -827 0
787 -828 0
67 -828 0
787 -829 0
-67 -829 0
828 829 -830 0
830 -831 0
65 -831 0
831 -832 0
-85 -832 0
827 832 -833 0
833 -834 0
68 -834 0
65 -835 0
67 -835 0
790 -836 0
835 -836 0
836 -837 0
-68 -837 0
834 837 -838 0
838 -839 0
86 -839 0
830 -840 0
68 -840 0
787 -841 0
67 -841 0
841 -842 0
-68 -842 0
840 842 -843 0
65 -844 0
85 -844 0
843 -845 0
844 -845 0
845 -846 0
-86 -846 0
839 846 -847 0
847 -848 0
-66 -848 0
819 848 -849 0
849 -850 0
36 -850 0
849 -851 0
-36 -851 0
850 851 -852 0
852 -853 0
24 -853 0
852 -854 0
-24 -854 0
853 854 -855 0
855 -856 0
23 -856 0
852 -857 0
24 -857 0
857 -858 0
-23 -858 0
856 858 -859 0
859 -860 0
13 -860 0
859 -861 0
-13 -861 0
860 861 -862 0
862 -863 0
14 -863 0
852 -864 0
13 -864 0
864 -865 0
24 -865 0
804 -866 0
66 -866 0
790 -867 0
65 -867 0
867 -868 0
-66 -868 0
866 868 -869 0
869 -870 0
67 -870 0
869 -871 0
-67 -871 0
870 871 -872 0
872 -873 0
13 -873 0
873 -874 0
68 -874 0
13 -875 0
67 -875 0
869 -876 0
875 -876 0
876 -877 0
-68 -877 0
874 877 -878 0
878 -879 0
36 -879 0
872 -880 0
68 -880 0
869 -881 0
67 -881 0
881 -882 0
-68 -882 0
880 882 -883 0
883 -884 0
13 -884 0
884 -885 0
-36 -885 0
879 885 -886 0
886 -887 0
86 -887 0
801 -888 0
66 -888 0
787 -889 0
65 -889 0
889 -890 0
-66 -890 0
888 890 -891 0
891 -892 0
67 -892 0
891 -893 0
-67 -893 0
892 893 -894 0
894 -895 0
68 -895 0
891 -896 0
67 -896 0
896 -897 0
-68 -897 0
895 897 -898 0
898 -899 0
36 -899 0
898 -900 0
-36 -900 0
899 900 -901 0
13 -902 0
85 -902 0
901 -903 0
902 -903 0
903 -904 0
-86 -904 0
887 904 -905 0
905 -906 0
-24 -906 0
865 906 -907 0
907 -908 0
23 -908 0
13 -909 0
24 -909 0
852 -910 0
909 -910 0
910 -911 0
-23 -911 0
908 911 -912 0
912 -913 0
-14 -913 0
914 -915 0
35 -915 0
872 -916 0
13 -916 0
872 -917 0
-13 -917 0
916 917 -918 0
918 -919 0
68 -919 0
869 -920 0
13 -920 0
869 -921 0
-13 -921 0
920 921 -922 0
922 -923 0
67 -923 0
923 -924 0
-68 -924 0
919 924 -925 0
925 -926 0
86 -926 0
894 -927 0
13 -927 0
894 -928 0
-13 -928 0
927 928 -929 0
929 -930 0
68 -930 0
891 -931 0
13 -931 0
891 -932 0
-13 -932 0
931 932 -933 0
933 -934 0
67 -934 0
934 -935 0
-68 -935 0
930 935 -936 0
936 -937 0
85 -937 0
937 -938 0
-86 -938 0
926 938 -939 0
939 -940 0
24 -940 0
939 -941 0
-24 -941 0
940 941 -942 0
942 -943 0
23 -943 0
939 -944 0
24 -944 0
944 -945 0
-23 -945 0
943 945 -946 0
946 -947 0
14 -947 0
849 -948 0
24 -948 0
849 -949 0
-24 -949 0
948 949 -950 0
950 -951 0
13 -951 0
951 -952 0
23 -952 0
849 -953 0
909 -953 0
953 -954 0
-23 -954 0
952 954 -955 0
955 -956 0
-14 -956 0
947 956 -957 0
957 -958 0
36 -958 0
958 -959 0
-35 -959 0
960 -962 0
-1 0
-2 0
-37 0
-38 0
49 0
-50 0
-51 0
52 0
-961 962 0
-954 955 0
-953 954 0
-952 955 0
-949 950 0
-947 957 0
-945 946 0
-944 945 0
-943 946 0
-940 942 0
-938 939 0
-937 938 0
-936 937 0
-935 936 0
-932 933 0
-929 930 0
-926 939 0
-925 926 0
-35 915 0
-913 914 0
-909 910 953 0
-908 912 0
-906 907 0
-905 906 0
-904 905 0
-902 903 0
-901 903 0
-900 901 0
-899 901 0
-898 899 900 0
-897 898 0
-895 898 0
-894 895 927 928 0
-893 894 0
-892 894 0
-889 890 0
-888 891 0
-887 905 0
-885 886 0
-884 885 0
-879 886 0
-874 878 0
-873 874 0
-872 873 880 916 917 0
-869 870 871 876 881 920 921 0
-867 868 0
-864 865 0
-14 863 947 0
-862 863 0
-861 862 0
13 861 917 921 928 932 0
-860 862 0
23 858 911 945 954 0
-857 858 0
-856 859 0
-855 856 0
-854 855 0
-853 855 0
-852 853 854 857 864 910 0
36 851 885 900 0
-36 850 879 899 958 0
-849 850 851 948 949 953 0
-848 849 0
66 848 868 890 0
-846 847 0
-844 845 0
-842 843 0
-840 843 0
-839 847 0
-957 958 0
-838 839 0
-955 956 0
-836 837 0
-835 836 0
-834 838 0
-833 834 0
-832 833 0
-950 951 0
-831 832 0
-829 830 0
-946 947 0
-828 830 0
-826 827 0
-821 822 0
68 806 814 837 842 877 882 897 924 935 0
-805 806 0
-804 805 866 0
-801 802 803 809 810 813 888 0
-795 796 0
-790 791 792 836 867 0
85 789 803 832 0
-787 788 789 824 828 829 841 889 0
50 787 801 822 0
-786 787 798 799 0
-783 784 0
39 783 0
-781 782 0
-779 782 0
-775 776 777 780 0
-774 775 0
-773 774 0
-882 883 0
-772 774 0
-880 883 0
-771 772 0
-876 877 0
-769 770 0
-763 764 0
-859 860 861 0
-756 757 0
-751 752 0
-749 752 0
-748 749 0
-747 754 0
-746 747 0
-737 738 0
-735 736 0
-734 735 0
-733 735 0
-730 731 0
-728 731 0
-726 727 0
-830 831 840 0
-724 725 0
-723 726 0
-713 716 0
-711 770 0
-881 882 0
-710 772 0
-820 821 0
-709 710 0
-818 819 0
-708 709 0
-817 818 0
-707 709 0
-808 818 0
-706 707 708 711 0
-814 815 0
-704 705 0
-811 812 0
-702 703 0
-810 811 0
-701 702 0
-807 808 0
-700 701 0
-809 811 0
-695 702 0
-813 814 0
-693 704 0
-685 686 0
-680 681 0
-679 680 0
-678 679 0
-677 678 0
-674 675 0
-673 674 676 0
-671 672 0
-670 671 0
-669 670 0
-668 669 0
-667 669 0
-666 671 0
-665 673 0
-662 663 0
-658 659 0
-886 887 0
-657 658 0
-656 657 0
-655 656 0
-654 655 0
-651 652 0
-878 879 0
-650 652 0
-649 650 651 696 0
-648 649 0
-86 808 839 887 926 0
-647 648 0
-871 872 0
-645 646 0
-870 872 0
-644 645 697 0
-866 869 0
-643 644 0
-642 643 0
-641 642 0
-23 856 908 943 952 0
-851 852 0
-750 751 0
-635 636 0
-634 636 0
-631 632 0
-630 642 0
-625 644 0
-624 625 0
-622 623 0
-618 619 0
-614 615 0
-612 649 0
-611 612 0
-608 609 0
-607 608 0
-725 726 0
-606 609 0
-951 952 0
-603 604 0
-602 603 0
-948 950 0
-601 603 0
-599 600 0
-597 598 0
-712 713 0
-596 597 0
-595 596 0
-594 597 0
-589 591 678 0
-588 591 688 0
-584 588 0
-581 599 0
-579 580 0
-578 579 0
-802 804 0
-577 578 0
-576 577 0
-575 577 0
-573 574 0
-572 573 0
-687 690 0
-570 572 0
-569 784 0
29 567 781 0
-29 561 779 0
-558 559 0
88 558 0
-896 897 0
-557 558 0
-554 555 0
-553 556 0
-782 783 0
-549 559 0
-88 549 0
-69 544 553 0
-542 543 0
-539 540 0
87 539 0
-538 540 0
-768 769 0
-536 537 0
-534 537 0
-55 534 0
-85 788 802 816 827 844 902 937 0
-533 534 0
72 531 0
-530 531 0
-529 532 0
-528 529 0
-527 528 0
-744 745 0
71 527 0
-623 624 0
-796 797 0
108 525 0
-629 630 0
-524 525 0
-523 526 0
-108 523 0
-521 522 0
107 521 0
-755 758 0
-520 522 0
-107 520 524 0
109 518 0
-517 518 0
-863 914 0
-109 516 0
-515 516 0
-514 515 0
110 514 0
-513 515 0
-511 512 0
90 511 0
-745 746 0
-626 627 631 0
-510 512 0
-652 654 0
-90 510 0
89 509 0
-540 541 542 545 0
-742 743 744 748 0
-508 533 0
-741 742 0
-507 508 0
-740 742 0
-506 508 0
-583 584 0
-56 506 535 0
-738 739 0
-504 505 0
-67 791 805 809 813 823 828 835 841 870 875 881 892 896 923 934 0
-617 618 0
-503 504 0
-616 617 0
-502 503 0
-615 616 0
-501 502 0
-593 594 687 0
-62 285 0
-600 658 0
-5 304 409 630 0
61 283 0
47 280 0
-326 327 0
-70 541 545 550 554 0
-276 277 0
-101 265 0
-442 443 0
-551 552 0
-311 312 0
97 259 267 0
-563 564 0
102 256 0
-318 319 0
-448 450 0
-102 254 273 0
79 247 0
-301 302 0
-243 244 0
-240 241 0
-297 298 0
-239 240 0
99 239 244 0
-509 510 0
18 330 362 390 578 596 651 683 689 698 733 738 757 0
-778 779 0
-435 437 0
-585 586 0
55 536 0
-238 239 0
-760 761 0
-294 295 0
-237 238 0
-292 295 0
-233 234 0
-232 233 0
-525 526 0
80 232 236 0
-231 233 0
-80 231 235 246 0
-115 116 0
-403 404 406 444 461 624 633 730 760 0
-753 754 0
-638 639 0
-284 285 0
-290 291 0
-79 241 0
-230 231 232 242 0
-754 755 0
-287 288 0
-636 638 0
-283 284 0
-226 227 0
-229 230 0
-285 288 0
-672 673 0
100 229 0
19 315 322 334 360 400 573 575 593 595 601 648 660 681 727 753 0
-280 281 0
-224 225 0
-234 240 0
25 328 337 342 653 729 0
-298 299 0
83 251 0
-236 237 0
-293 294 0
-18 330 341 574 594 650 663 687 696 755 0
-289 291 0
-412 413 0
-762 763 0
82 226 0
-921 922 0
-356 357 0
-225 226 0
-279 280 0
-568 569 0
-220 221 0
-223 224 0
-278 279 0
-395 396 0
-99 234 242 0
-110 513 517 0
-221 227 0
74 177 192 0
-282 284 0
-868 869 0
-82 221 0
-567 568 0
-219 220 0
-274 275 0
-390 391 395 438 440 452 454 0
-941 942 0
63 219 223 0
-764 765 0
-418 419 0
-212 213 0
-159 160 0
67 792 810 825 829 871 893 0
-265 275 0
-561 568 0
-217 220 0
-847 848 0
-165 166 0
-63 217 222 0
-13 860 864 873 875 884 902 909 916 920 927 931 951 0
-391 393 0
-60 200 0
-246 247 0
-566 567 0
-216 217 0
-161 162 0
-68 797 812 834 840 874 880 895 919 930 0
-273 274 0
-392 393 395 611 620 720 722 746 748 0
-213 276 0
70 542 551 0
-106 489 0
-247 248 0
-591 592 0
-245 246 0
-339 365 0
-761 762 0
-81 214 225 0
-535 536 0
-9 310 423 434 707 711 0
48 212 0
-48 211 279 0
-266 268 0
-208 209 0
-323 324 0
-270 271 0
-272 273 0
-155 156 0
-264 265 0
-206 207 0
-209 210 0
-271 272 0
-387 388 0
-154 156 0
-152 161 0
-268 269 0
-890 891 0
95 209 0
-903 904 0
9 311 424 477 708 769 0
-942 943 0
-824 825 0
-367 369 0
-47 277 0
-260 261 0
-205 206 0
-263 264 0
-3 371 374 407 470 585 625 0
96 205 0
-375 376 0
-259 260 0
-200 203 0
-204 206 0
-261 264 0
-664 665 0
-96 204 208 0
-427 428 0
2 961 0
-676 680 0
-10 428 710 0
-207 210 0
-267 268 0
4 328 376 386 413 474 587 618 622 626 635 0
-202 203 0
-438 439 0
-257 258 259 262 0
-199 200 0
-197 199 0
-201 202 0
-258 260 0
-254 257 0
-372 373 0
-255 256 0
-198 199 0
-256 257 0
59 198 0
64 215 0
-179 196 0
-850 852 0
-73 145 163 165 191 0
-249 250 0
-167 168 0
-605 606 0
-144 147 169 180 187 0
-546 547 0
-307 309 0
-143 144 0
-544 547 0
-306 307 308 387 607 614 0
-719 720 0
-142 144 0
-545 546 0
-305 306 0
-815 816 0
-659 706 0
58 143 0
-66 819 866 888 0
43 126 0
-269 272 0
-156 161 185 191 0
101 274 0
-211 213 0
31 113 0
-718 719 0
-543 544 0
-304 306 0
-228 230 0
-628 629 631 724 734 737 750 756 0
-286 287 0
-907 908 0
44 122 0
-324 325 0
33 140 0
-928 929 0
-353 361 0
-139 140 0
-716 717 718 722 0
-138 141 0
-541 543 0
-303 304 410 471 627 0
-136 137 0
-135 137 0
-253 254 0
34 136 0
-242 245 0
-300 301 0
-296 298 0
-388 389 0
-93 154 164 0
-129 130 0
-130 131 0
73 145 0
-571 572 0
-222 224 0
46 129 0
-94 153 155 166 0
-877 878 0
-189 190 0
-816 817 0
-705 706 0
-363 364 0
-715 716 0
-64 215 218 223 0
-113 114 0
-683 684 0
-344 345 0
-46 128 132 0
-137 138 0
35 959 0
-717 719 0
-140 141 0
-21 117 0
-681 682 0
-335 338 0
-57 148 171 181 187 0
-33 138 0
-797 807 0
-698 699 0
-471 472 0
-131 134 0
-158 160 0
-235 237 0
-291 292 0
-34 135 139 0
-116 117 0
-640 641 0
78 294 0
-822 823 0
-133 134 0
-799 800 0
-12 307 389 449 457 607 614 714 741 0
-841 842 0
-386 387 610 0
-621 647 0
-111 112 0
-169 170 0
-125 126 0
-646 647 0
84 249 0
-97 258 262 266 270 0
-39 569 0
-262 263 0
-661 662 0
94 153 0
-767 768 0
-384 422 0
21 119 0
-531 532 0
-182 183 0
-827 833 0
-145 147 149 180 182 0
-825 826 0
-369 372 375 435 436 440 454 583 586 738 0
-340 341 0
-124 127 0
-180 181 0
-408 410 617 635 0
-168 169 172 0
-684 685 694 0
-336 338 340 347 356 571 576 590 602 661 668 677 0
54 504 0
-359 360 0
-244 245 0
-299 302 0
-470 473 0
-91 158 0
-119 120 0
-178 179 0
-83 250 0
17 329 364 390 705 766 0
-757 758 0
-174 175 0
-766 767 0
-420 421 0
-184 185 0
-931 933 0
-361 362 438 440 452 454 735 738 0
-100 228 238 243 0
-19 314 322 353 394 612 675 721 747 0
-582 583 623 0
-121 123 0
-132 133 0
-17 329 339 659 732 0
-61 282 286 0
-128 130 0
-122 123 0
-758 759 0
-170 171 0
-117 120 0
98 263 271 0
-31 112 0
76 146 0
-173 174 0
-360 361 0
-910 911 0
45 133 0
-689 690 0
12 308 379 381 416 449 458 570 575 582 585 601 637 0
56 507 0
-123 124 0
-759 760 0
-171 176 0
14 913 956 0
-639 640 0
-172 173 0
-410 411 0
-112 114 0
-250 252 0
-195 196 0
92 157 0
-193 194 0
81 214 0
-914 915 0
-49 786 820 0
-464 465 0
-126 127 0
-389 417 0
-162 178 0
65 795 799 0
-43 124 0
-177 178 0
-413 414 0
-516 519 0
-76 146 194 0
-743 745 0
-399 400 0
30 486 777 0
-729 731 0
-609 610 0
-382 383 0
-147 148 0
-930 936 0
-59 197 201 0
-924 925 0
-358 359 0
-149 150 0
-550 552 0
-310 312 0
-44 121 125 0
-157 158 0
-153 154 163 0
22 115 0
-72 529 0
-163 164 0
-843 845 0
-398 399 0
-24 853 857 865 909 940 944 948 0
-164 168 0
-25 337 0
-663 684 0
-342 344 346 418 443 460 759 0
-331 332 0
-883 884 0
-604 656 0
-185 186 0
-330 331 335 388 397 429 442 456 602 712 714 724 0
-74 162 186 0
-166 167 0
-682 683 688 0
-343 344 393 395 611 620 664 720 722 746 748 0
-752 753 0
-75 179 0
-564 566 0
-218 219 0
-454 455 0
-241 248 0
-186 193 0
-188 189 0
-341 363 0
-770 771 0
-190 191 0
-722 723 0
-192 193 0
-194 195 0
-251 252 0
-875 876 0
86 817 846 904 938 0
-329 331 388 397 429 442 456 0
-187 190 0
-812 815 0
-703 704 0
-362 363 0
75 195 0
-30 485 565 776 780 0
-933 934 0
-587 588 0
-58 142 150 174 182 188 0
-466 467 0
-77 289 293 0
-858 859 0
77 290 0
-792 793 0
-45 131 0
-459 460 0
-78 292 0
-788 790 0
-104 296 300 0
-865 907 0
104 297 0
-214 216 218 0
-103 299 0
103 301 0
-443 444 0
-590 591 0
-6 303 305 632 0
-934 935 0
5 305 370 374 409 582 585 641 0
-547 548 0
-308 309 0
-548 549 0
93 155 167 0
-309 310 311 430 605 613 0
-660 662 0
-552 553 0
-312 332 0
-803 804 0
-696 699 0
-20 313 315 354 396 621 676 717 723 743 749 0
-777 778 0
-433 434 0
-555 556 0
-314 316 0
-556 557 0
-315 316 0
-98 261 269 0
-316 317 318 321 0
-317 319 0
6 303 370 374 582 585 639 0
28 318 324 334 343 348 355 570 575 589 601 660 670 0
-319 320 0
-721 728 0
-148 152 0
-40 482 773 0
-497 498 0
-320 327 0
-562 563 0
-447 448 0
106 490 0
-321 325 0
-785 786 0
-322 323 0
-800 801 0
27 326 334 350 355 392 570 575 589 601 660 672 0
-325 326 0
-565 566 0
-439 448 0
-327 332 387 430 443 456 697 756 0
3 328 371 386 411 472 619 643 0
-472 473 0
7 328 366 386 408 626 0
-791 793 0
8 328 368 386 403 408 626 0
-313 314 323 352 391 605 607 674 0
-437 438 452 735 0
-586 587 0
15 328 382 419 436 445 462 598 655 691 701 729 761 0
-912 913 0
-346 349 0
60 202 0
16 328 421 447 464 657 703 729 764 0
26 328 336 342 653 729 0
-328 332 430 0
-371 372 402 468 583 0
-332 333 0
-452 453 0
-499 505 0
-11 333 431 451 606 613 628 713 740 0
-333 427 0
69 546 555 0
-397 398 0
-26 336 0
-697 698 0
-688 689 0
-337 338 340 347 356 571 576 590 602 661 668 677 0
-694 695 0
-118 119 0
-338 339 0
-917 918 0
-686 692 0
-345 351 0
-798 800 0
-347 348 0
-794 796 0
-455 463 0
-348 349 0
-916 918 0
-690 691 0
-28 317 321 343 346 666 0
-349 350 0
-691 692 0
-350 351 0
-920 922 0
-692 693 0
-351 352 354 0
-927 929 0
24 854 906 941 949 0
-352 353 0
-919 925 0
-354 359 0
20 313 334 358 398 570 575 592 601 646 660 679 718 725 744 751 0
-355 357 397 645 724 750 0
-923 924 0
-357 358 0
-364 365 0
-365 378 381 0
32 111 0
-366 367 404 406 444 461 624 633 730 760 0
-823 826 0
-368 369 0
-939 940 941 944 0
62 287 0
-370 372 402 406 468 470 0
-619 620 0
-4 373 405 469 584 622 634 0
-598 599 0
-373 377 0
-374 375 0
-376 377 0
-377 378 381 572 577 603 685 694 0
-653 654 664 666 700 0
-489 491 0
-8 367 403 0
-490 491 0
-379 380 385 0
-469 475 0
-15 380 385 435 441 455 581 604 686 695 739 0
-380 383 0
-956 957 0
-381 382 0
-16 384 439 453 600 693 736 0
-765 766 0
-620 621 0
-385 420 0
-637 638 685 694 0
-393 394 0
-819 849 0
-394 401 0
-396 399 0
-627 629 0
-400 401 0
-401 415 458 0
-633 634 0
-402 404 0
-462 463 0
-404 405 0
-522 523 0
-405 414 0
-406 407 0
-407 412 0
-409 410 471 0
-463 464 0
-632 640 0
-518 519 0
-411 412 0
-739 762 0
-175 176 0
-414 415 0
-176 177 0
-415 416 0
-416 417 0
-473 474 0
-736 765 0
-181 184 0
-417 418 0
-732 767 0
-183 184 0
-419 420 0
-87 538 557 0
-481 483 0
-421 422 0
-422 423 424 432 0
-423 425 0
-424 425 0
-191 192 0
-425 426 0
-277 281 0
11 426 432 466 580 582 585 601 608 615 628 637 715 741 0
-426 427 0
-958 959 0
-65 794 798 820 824 831 835 844 867 889 0
42 493 0
-592 593 595 0
-428 480 0
91 159 0
-429 430 0
-430 431 0
-431 433 0
-845 846 0
10 479 771 0
-776 778 0
-432 433 0
57 151 175 183 189 0
-434 478 0
-780 781 0
-95 207 0
-436 437 0
-440 441 0
-891 892 893 896 931 932 0
-441 446 0
-444 445 0
-445 446 0
-560 561 0
-446 447 0
-449 450 452 454 629 631 712 724 734 737 740 750 756 0
-450 451 0
-918 919 0
-574 579 0
-451 467 0
-27 320 345 392 665 0
-453 465 0
-456 457 0
-215 216 222 0
-457 459 0
-789 790 0
-458 459 0
-793 794 795 0
-460 461 0
-911 912 0
-461 462 0
-465 466 0
-467 476 0
-922 923 0
-468 469 0
-474 475 0
-475 476 768 0
-476 477 0
-477 478 0
-7 366 368 0
-478 479 0
-479 480 0
-480 483 563 0
-146 147 149 170 173 0
38 481 562 570 575 589 601 653 660 667 729 733 763 0
-720 721 0
-150 151 0
40 482 0
-482 483 563 0
-483 484 0
-714 715 0
-484 485 486 0
-485 487 0
-486 487 0
-487 560 0
-675 682 0
-334 335 340 0
105 488 0
-488 489 0
-580 581 0
-53 492 503 0
53 492 0
-492 494 496 0
-42 493 496 501 0
-493 494 500 0
-727 728 0
-151 152 0
-494 495 0
-41 495 500 0
-495 498 0
-378 379 0
-496 497 0
-837 838 0
41 497 501 0
-610 611 0
-498 499 0
-806 807 0
-699 700 0
-54 499 0
-731 732 0
-613 616 0
-383 384 0
-500 502 0
